
  12    4
  10   10   10   10

   0   0   0   0   0   1 2 
   7  10  10  10  10   1 3 
   5  10  10  10  10   3 6 5 4 
   7  10  10  10  10   2 8 7 
   1  10  10  10  10   1 7 
   9  10  10  10  10   1 7 
   6  10  10  10  10   2 11 9 
   2  10  10  10  10   1 9 
   1  10  10  10  10   1 10 
   4  10  10  10  10   1 12
   2  10  10  10  10   1 12
   0   0   0   0   0   0 
